Route #1: 39 14 13 52 34 21 25
Route #2: 4 28 17 41 11 24 5 3
Route #3: 47 7 12 48 42 45 22
Route #4: 9 16 32 15 19 23 43 50 36 2 37
Route #5: 38 18 40 26 10 29 49 44 30 1
Route #6: 27 35 8 46 51
Route #7: 31 20 6 33
Cost 1010
Time 0.076172
